DIMACS_lns/graph-1000-861.col
p edge 1000 1817
e 1 730
e 1 594
e 1 198
e 1 31
e 1 987
e 1 59
e 1 391
e 1 761
e 1 402
e 2 297
e 2 923
e 2 286
e 2 561
e 2 740
e 2 292
e 2 53
e 3 818
e 3 277
e 3 685
e 3 933
e 4 130
e 4 762
e 4 100
e 4 726
e 5 643
e 5 182
e 5 13
e 6 453
e 6 602
e 6 402
e 6 284
e 6 381
e 7 717
e 7 746
e 7 777
e 7 192
e 7 656
e 10 84
e 10 571
e 10 82
e 10 165
e 10 274
e 11 60
e 11 581
e 11 565
e 11 211
e 13 19
e 13 421
e 13 81
e 13 563
e 13 406
e 13 614
e 13 586
e 13 342
e 14 217
e 14 582
e 14 452
e 14 814
e 15 338
e 15 983
e 15 481
e 15 755
e 15 698
e 18 808
e 18 300
e 18 689
e 18 656
e 19 457
e 19 222
e 19 84
e 20 864
e 20 981
e 20 859
e 22 60
e 22 123
e 22 464
e 24 905
e 24 737
e 24 943
e 25 145
e 25 220
e 25 217
e 25 388
e 25 90
e 25 755
e 27 225
e 27 502
e 27 573
e 27 955
e 27 750
e 27 616
e 27 231
e 27 609
e 27 898
e 28 728
e 28 590
e 28 701
e 28 799
e 28 302
e 29 833
e 29 636
e 29 86
e 29 487
e 29 714
e 29 575
e 29 943
e 30 141
e 30 537
e 30 695
e 30 352
e 31 219
e 31 932
e 31 82
e 32 298
e 32 877
e 32 274
e 32 454
e 34 367
e 34 275
e 34 542
e 34 155
e 34 92
e 34 691
e 37 689
e 37 764
e 37 870
e 37 984
e 39 392
e 39 373
e 39 112
e 39 861
e 39 185
e 40 649
e 40 510
e 40 981
e 41 46
e 41 546
e 41 175
e 41 848
e 41 486
e 41 625
e 41 716
e 41 496
e 43 407
e 43 634
e 43 510
e 43 44
e 43 381
e 43 772
e 43 108
e 44 169
e 44 114
e 45 840
e 45 437
e 45 102
e 45 869
e 45 486
e 45 844
e 45 627
e 46 250
e 46 852
e 47 939
e 47 396
e 47 675
e 50 101
e 50 240
e 50 840
e 50 168
e 51 638
e 51 618
e 51 830
e 51 494
e 52 717
e 52 129
e 52 791
e 53 308
e 53 537
e 53 302
e 55 313
e 55 282
e 55 990
e 55 595
e 55 263
e 57 906
e 57 955
e 57 394
e 57 90
e 57 137
e 58 864
e 58 655
e 58 110
e 58 722
e 58 748
e 59 680
e 59 908
e 59 596
e 59 307
e 59 491
e 59 644
e 60 522
e 60 563
e 60 593
e 60 113
e 61 952
e 61 541
e 61 189
e 61 869
e 65 378
e 65 950
e 65 824
e 66 272
e 66 681
e 66 319
e 66 548
e 66 965
e 68 596
e 68 368
e 68 673
e 68 693
e 69 514
e 69 845
e 69 674
e 71 485
e 71 719
e 71 595
e 71 812
e 71 756
e 71 166
e 72 814
e 72 623
e 72 356
e 72 118
e 73 657
e 73 280
e 73 786
e 73 80
e 73 745
e 75 778
e 75 653
e 75 385
e 75 482
e 75 330
e 76 410
e 76 395
e 76 783
e 78 719
e 78 402
e 78 635
e 78 486
e 79 526
e 79 784
e 79 717
e 79 275
e 79 541
e 80 846
e 80 475
e 80 672
e 80 598
e 80 627
e 81 792
e 81 557
e 82 911
e 82 914
e 82 438
e 82 256
e 83 673
e 83 817
e 83 360
e 84 911
e 84 99
e 84 782
e 85 651
e 85 116
e 85 365
e 85 176
e 85 957
e 85 97
e 85 583
e 86 946
e 86 746
e 86 347
e 86 167
e 86 264
e 87 743
e 87 356
e 87 214
e 88 374
e 88 373
e 88 984
e 89 957
e 89 480
e 89 269
e 89 979
e 89 852
e 89 539
e 90 292
e 90 711
e 90 198
e 90 476
e 90 266
e 91 796
e 91 262
e 91 541
e 92 786
e 92 691
e 92 432
e 93 581
e 93 755
e 93 832
e 93 283
e 95 410
e 95 933
e 95 395
e 95 445
e 97 114
e 97 426
e 97 653
e 97 627
e 97 267
e 98 492
e 98 261
e 98 394
e 98 825
e 98 985
e 98 842
e 98 576
e 98 574
e 99 103
e 99 660
e 99 394
e 99 974
e 100 389
e 100 447
e 100 758
e 100 423
e 100 355
e 101 222
e 101 850
e 101 709
e 102 140
e 102 998
e 102 899
e 102 991
e 102 176
e 102 726
e 102 735
e 103 852
e 103 998
e 105 117
e 105 338
e 105 947
e 105 151
e 105 755
e 105 727
e 105 648
e 105 112
e 105 347
e 106 618
e 106 908
e 106 689
e 106 541
e 106 609
e 106 489
e 106 342
e 107 675
e 107 367
e 107 406
e 107 957
e 107 466
e 108 518
e 108 845
e 108 391
e 108 705
e 108 485
e 108 725
e 108 162
e 108 660
e 109 352
e 109 280
e 109 532
e 109 584
e 110 712
e 110 458
e 110 562
e 112 935
e 112 783
e 112 245
e 112 807
e 112 615
e 113 156
e 113 923
e 113 474
e 114 743
e 114 349
e 114 418
e 114 150
e 114 395
e 114 990
e 115 890
e 115 384
e 115 770
e 115 278
e 115 174
e 115 170
e 115 140
e 115 600
e 116 698
e 116 645
e 116 784
e 116 533
e 117 567
e 117 978
e 117 253
e 118 764
e 118 723
e 118 219
e 118 805
e 119 671
e 119 180
e 119 812
e 120 392
e 120 342
e 120 138
e 120 181
e 121 876
e 121 599
e 121 292
e 121 716
e 122 247
e 122 533
e 122 367
e 123 647
e 123 434
e 123 928
e 123 354
e 124 342
e 124 829
e 124 176
e 124 896
e 124 818
e 125 718
e 125 351
e 125 573
e 126 820
e 126 948
e 126 983
e 126 675
e 126 626
e 127 664
e 127 861
e 127 667
e 127 940
e 128 963
e 128 618
e 128 829
e 128 868
e 129 594
e 129 272
e 129 813
e 129 988
e 130 602
e 130 411
e 130 217
e 131 438
e 131 283
e 131 350
e 131 637
e 131 980
e 134 230
e 134 241
e 134 426
e 134 481
e 134 654
e 136 561
e 136 286
e 136 603
e 137 303
e 137 887
e 137 948
e 137 879
e 138 320
e 138 238
e 139 901
e 139 914
e 139 433
e 140 354
e 141 262
e 141 241
e 141 188
e 142 342
e 142 352
e 142 854
e 142 258
e 142 675
e 142 480
e 143 590
e 143 798
e 143 972
e 143 769
e 145 370
e 145 891
e 146 409
e 146 760
e 146 256
e 148 278
e 148 801
e 148 890
e 148 639
e 148 337
e 149 810
e 149 657
e 149 679
e 149 181
e 150 791
e 150 584
e 150 273
e 151 876
e 151 475
e 151 681
e 152 574
e 152 260
e 152 390
e 152 923
e 152 406
e 154 538
e 154 315
e 154 323
e 155 937
e 155 278
e 155 898
e 156 842
e 156 297
e 157 970
e 157 887
e 157 911
e 158 598
e 158 697
e 158 585
e 160 916
e 160 584
e 160 282
e 160 475
e 160 854
e 160 579
e 161 247
e 161 871
e 161 345
e 162 595
e 162 699
e 162 928
e 163 297
e 163 976
e 163 632
e 163 396
e 163 724
e 164 295
e 164 492
e 164 341
e 164 447
e 164 555
e 165 896
e 165 378
e 165 214
e 165 275
e 166 279
e 166 787
e 167 855
e 167 942
e 168 1000
e 168 660
e 168 817
e 168 173
e 168 622
e 168 672
e 168 653
e 168 286
e 169 531
e 169 652
e 170 978
e 170 836
e 170 381
e 170 457
e 170 439
e 170 228
e 173 403
e 173 631
e 173 533
e 173 897
e 174 277
e 174 498
e 174 846
e 174 943
e 175 861
e 175 313
e 175 282
e 176 434
e 176 196
e 176 981
e 178 985
e 178 595
e 178 905
e 178 304
e 178 984
e 180 765
e 180 288
e 181 336
e 182 342
e 182 431
e 182 854
e 185 738
e 185 899
e 185 592
e 185 482
e 185 820
e 186 482
e 186 449
e 186 380
e 186 574
e 187 518
e 187 556
e 187 548
e 188 527
e 188 728
e 188 748
e 188 586
e 189 512
e 189 804
e 189 280
e 191 696
e 191 837
e 191 362
e 192 447
e 192 448
e 194 478
e 194 343
e 194 789
e 194 269
e 194 825
e 195 782
e 195 656
e 195 208
e 196 851
e 196 544
e 196 371
e 196 522
e 196 989
e 196 213
e 196 660
e 198 782
e 198 902
e 198 780
e 198 898
e 198 247
e 198 927
e 198 726
e 199 622
e 199 701
e 199 297
e 203 354
e 203 240
e 203 381
e 203 734
e 203 774
e 205 794
e 205 216
e 205 349
e 205 309
e 205 297
e 205 702
e 205 442
e 208 817
e 208 491
e 208 266
e 208 413
e 211 903
e 211 753
e 211 493
e 211 606
e 211 783
e 211 641
e 211 319
e 212 743
e 212 900
e 212 651
e 212 453
e 212 478
e 212 932
e 212 907
e 212 790
e 213 821
e 213 377
e 213 839
e 213 930
e 213 714
e 213 960
e 214 765
e 214 496
e 214 747
e 216 492
e 216 406
e 218 453
e 218 656
e 218 742
e 218 286
e 218 411
e 218 874
e 218 233
e 218 754
e 219 718
e 219 967
e 220 778
e 220 392
e 221 611
e 221 893
e 221 761
e 221 526
e 222 268
e 222 586
e 224 765
e 224 716
e 224 275
e 224 317
e 224 977
e 225 636
e 225 272
e 225 376
e 227 869
e 227 915
e 227 590
e 227 723
e 228 657
e 228 846
e 229 481
e 229 291
e 229 459
e 230 695
e 230 324
e 230 659
e 230 371
e 231 945
e 231 497
e 231 277
e 231 729
e 231 310
e 231 777
e 233 541
e 233 715
e 236 509
e 236 244
e 236 643
e 236 908
e 238 487
e 238 787
e 238 969
e 238 711
e 239 500
e 239 790
e 239 472
e 240 384
e 240 622
e 240 930
e 240 403
e 240 797
e 240 967
e 241 376
e 241 333
e 243 797
e 243 313
e 243 616
e 243 640
e 243 404
e 244 810
e 244 562
e 244 723
e 244 923
e 244 676
e 244 879
e 244 887
e 245 487
e 245 318
e 245 362
e 247 595
e 247 618
e 247 807
e 248 788
e 248 511
e 248 726
e 249 830
e 249 952
e 249 856
e 250 494
e 250 445
e 251 899
e 251 309
e 251 258
e 253 800
e 253 573
e 253 772
e 253 724
e 256 921
e 256 976
e 258 950
e 258 481
e 258 691
e 258 945
e 260 413
e 260 854
e 260 939
e 260 998
e 260 884
e 260 595
e 261 884
e 261 470
e 261 692
e 262 662
e 262 383
e 263 334
e 263 426
e 263 660
e 264 297
e 264 819
e 264 499
e 264 936
e 266 306
e 266 850
e 267 854
e 267 338
e 268 960
e 268 298
e 268 415
e 268 402
e 269 412
e 269 535
e 269 494
e 269 884
e 269 483
e 269 354
e 271 459
e 271 653
e 271 921
e 271 713
e 271 282
e 271 808
e 272 984
e 272 714
e 272 535
e 272 600
e 272 399
e 273 328
e 273 514
e 274 547
e 274 963
e 274 415
e 274 728
e 274 365
e 275 368
e 276 839
e 276 285
e 276 829
e 276 877
e 276 533
e 277 939
e 277 609
e 277 442
e 279 713
e 279 489
e 279 413
e 279 728
e 280 474
e 280 445
e 282 565
e 282 655
e 283 962
e 283 686
e 283 382
e 283 578
e 284 708
e 284 639
e 285 535
e 285 405
e 286 329
e 287 574
e 287 742
e 287 736
e 287 843
e 287 430
e 287 783
e 288 635
e 288 431
e 288 710
e 291 987
e 291 854
e 291 841
e 291 792
e 291 940
e 291 464
e 292 656
e 293 799
e 293 296
e 293 465
e 293 595
e 294 606
e 294 430
e 294 485
e 295 510
e 295 347
e 295 843
e 296 421
e 296 562
e 297 781
e 297 899
e 297 792
e 297 893
e 297 518
e 298 345
e 298 474
e 298 550
e 300 959
e 300 330
e 300 701
e 300 825
e 301 655
e 301 922
e 301 888
e 302 539
e 302 347
e 302 378
e 302 399
e 303 845
e 303 681
e 303 574
e 304 381
e 304 595
e 304 592
e 304 703
e 306 313
e 306 628
e 306 724
e 306 524
e 307 643
e 307 772
e 307 464
e 308 453
e 308 829
e 309 988
e 309 909
e 309 770
e 309 596
e 309 860
e 310 833
e 310 765
e 310 708
e 313 424
e 313 383
e 313 713
e 313 879
e 313 965
e 315 551
e 315 678
e 315 717
e 315 497
e 315 748
e 317 686
e 317 567
e 318 565
e 318 748
e 318 550
e 319 675
e 320 350
e 320 552
e 320 465
e 320 747
e 323 558
e 323 623
e 323 372
e 324 482
e 324 360
e 324 854
e 328 615
e 328 762
e 328 415
e 328 698
e 329 559
e 329 811
e 330 972
e 330 940
e 330 918
e 333 474
e 333 765
e 333 624
e 333 983
e 334 870
e 334 429
e 334 890
e 336 747
e 336 531
e 337 502
e 337 945
e 337 371
e 338 403
e 338 740
e 338 466
e 338 355
e 338 737
e 339 947
e 339 835
e 339 801
e 341 539
e 341 890
e 341 740
e 341 936
e 341 819
e 341 695
e 342 496
e 342 515
e 342 470
e 343 372
e 343 917
e 345 888
e 345 472
e 345 466
e 345 624
e 345 597
e 345 461
e 347 972
e 349 996
e 349 512
e 350 927
e 351 887
e 351 705
e 351 976
e 351 593
e 351 819
e 351 745
e 351 379
e 352 728
e 352 455
e 352 788
e 352 458
e 354 410
e 354 911
e 354 720
e 354 981
e 354 550
e 354 762
e 354 362
e 355 999
e 355 431
e 355 686
e 355 798
e 356 995
e 356 454
e 359 694
e 359 652
e 359 698
e 360 672
e 360 868
e 361 426
e 361 804
e 361 375
e 362 437
e 362 477
e 362 567
e 362 782
e 365 466
e 365 737
e 365 964
e 365 708
e 365 766
e 365 422
e 367 741
e 368 379
e 368 592
e 368 529
e 368 736
e 370 826
e 370 819
e 370 476
e 370 585
e 371 611
e 372 749
e 372 513
e 372 512
e 373 727
e 373 921
e 374 555
e 374 817
e 374 432
e 375 537
e 375 667
e 375 640
e 376 392
e 377 489
e 377 601
e 378 509
e 378 798
e 379 601
e 379 645
e 380 852
e 380 609
e 380 889
e 380 469
e 381 967
e 382 654
e 382 569
e 383 939
e 383 548
e 384 905
e 384 533
e 384 894
e 384 674
e 384 811
e 385 464
e 385 554
e 385 590
e 386 579
e 386 712
e 386 798
e 386 486
e 388 991
e 388 843
e 388 800
e 389 838
e 389 655
e 389 555
e 390 613
e 390 615
e 391 524
e 392 796
e 392 603
e 394 708
e 394 632
e 395 469
e 395 787
e 396 622
e 398 430
e 398 710
e 398 424
e 398 804
e 398 896
e 398 500
e 399 579
e 399 899
e 399 676
e 402 550
e 403 574
e 403 749
e 403 719
e 403 627
e 403 983
e 403 782
e 404 734
e 404 915
e 404 836
e 405 651
e 405 466
e 406 686
e 406 820
e 407 581
e 407 756
e 407 906
e 407 678
e 409 664
e 409 557
e 409 774
e 409 761
e 409 445
e 410 635
e 410 884
e 411 699
e 411 892
e 411 825
e 412 591
e 412 640
e 412 864
e 413 787
e 415 461
e 415 670
e 418 702
e 418 722
e 418 764
e 420 537
e 420 977
e 420 573
e 420 922
e 420 795
e 420 976
e 420 574
e 421 465
e 421 769
e 422 931
e 422 734
e 422 467
e 423 636
e 423 615
e 423 644
e 423 454
e 424 787
e 424 544
e 425 619
e 425 966
e 425 509
e 425 741
e 426 887
e 426 858
e 426 648
e 429 787
e 429 806
e 429 834
e 430 507
e 431 812
e 431 454
e 431 918
e 432 927
e 433 637
e 433 872
e 433 500
e 433 651
e 434 946
e 434 907
e 434 556
e 437 836
e 437 468
e 437 796
e 438 523
e 438 690
e 439 996
e 439 680
e 442 919
e 442 522
e 445 864
e 445 855
e 445 875
e 445 513
e 445 725
e 445 761
e 447 946
e 448 917
e 448 834
e 449 597
e 449 637
e 449 907
e 449 746
e 449 868
e 450 903
e 450 844
e 450 997
e 452 969
e 452 962
e 453 879
e 453 750
e 453 544
e 453 768
e 453 510
e 454 674
e 454 645
e 454 735
e 455 706
e 455 690
e 455 718
e 457 958
e 457 464
e 458 780
e 458 880
e 458 717
e 458 590
e 459 792
e 460 908
e 460 846
e 460 715
e 461 535
e 461 964
e 461 696
e 461 653
e 464 653
e 464 859
e 465 881
e 466 896
e 466 542
e 467 955
e 467 753
e 468 996
e 468 911
e 469 477
e 469 921
e 469 568
e 469 848
e 470 472
e 472 872
e 472 909
e 472 897
e 472 572
e 474 784
e 475 695
e 475 867
e 475 685
e 476 653
e 476 836
e 476 724
e 476 667
e 477 790
e 477 561
e 477 643
e 477 884
e 478 656
e 478 983
e 478 615
e 478 570
e 480 550
e 480 980
e 480 766
e 480 575
e 481 995
e 482 673
e 482 998
e 483 579
e 483 550
e 483 581
e 483 991
e 485 788
e 485 911
e 486 872
e 486 599
e 486 535
e 486 531
e 489 931
e 489 889
e 489 748
e 491 953
e 491 864
e 492 591
e 492 801
e 492 838
e 493 710
e 493 829
e 496 694
e 496 582
e 496 583
e 496 927
e 496 659
e 496 709
e 497 879
e 497 903
e 497 922
e 497 669
e 498 783
e 498 532
e 499 692
e 499 874
e 500 529
e 500 925
e 501 551
e 501 527
e 501 810
e 502 518
e 504 916
e 504 729
e 504 889
e 504 634
e 507 707
e 507 918
e 507 954
e 507 738
e 507 824
e 509 841
e 509 647
e 509 851
e 510 995
e 510 836
e 510 549
e 510 951
e 511 976
e 511 831
e 512 869
e 513 562
e 513 761
e 513 561
e 513 609
e 513 795
e 514 753
e 515 607
e 515 758
e 518 979
e 522 665
e 522 760
e 522 651
e 523 693
e 523 807
e 524 547
e 524 831
e 526 944
e 527 896
e 527 755
e 529 868
e 531 583
e 531 855
e 531 639
e 531 845
e 532 707
e 533 995
e 535 821
e 538 574
e 538 557
e 538 729
e 539 916
e 539 866
e 541 598
e 542 976
e 542 727
e 542 915
e 542 645
e 544 737
e 545 574
e 545 549
e 545 656
e 545 669
e 545 613
e 546 566
e 546 662
e 546 690
e 547 837
e 548 561
e 548 884
e 549 741
e 549 919
e 551 990
e 551 985
e 551 842
e 552 665
e 552 838
e 553 790
e 553 658
e 553 555
e 554 575
e 554 739
e 556 989
e 556 906
e 558 590
e 558 869
e 559 977
e 559 687
e 559 739
e 559 737
e 561 774
e 561 974
e 563 772
e 564 584
e 564 825
e 564 692
e 565 850
e 566 626
e 566 707
e 566 952
e 566 871
e 568 825
e 568 818
e 568 792
e 569 969
e 569 647
e 570 672
e 570 943
e 571 709
e 571 743
e 572 919
e 572 833
e 574 985
e 574 907
e 574 797
e 575 670
e 575 978
e 576 591
e 576 620
e 578 722
e 578 899
e 579 592
e 579 937
e 579 965
e 579 613
e 582 852
e 583 996
e 584 783
e 584 624
e 584 664
e 585 799
e 586 749
e 586 772
e 590 647
e 590 654
e 591 908
e 592 775
e 593 761
e 593 946
e 594 651
e 594 795
e 595 848
e 595 970
e 595 833
e 597 788
e 598 750
e 599 649
e 599 602
e 600 771
e 600 664
e 600 958
e 601 937
e 601 999
e 603 974
e 603 641
e 605 893
e 605 665
e 605 692
e 606 620
e 607 902
e 607 773
e 609 909
e 609 834
e 611 921
e 613 817
e 614 690
e 614 935
e 614 671
e 614 702
e 615 737
e 616 712
e 618 896
e 618 754
e 618 758
e 619 935
e 619 697
e 620 755
e 622 712
e 623 749
e 624 691
e 624 665
e 624 724
e 625 858
e 625 868
e 626 672
e 626 641
e 626 884
e 626 919
e 627 912
e 627 820
e 628 907
e 628 830
e 630 711
e 630 843
e 630 804
e 630 706
e 631 832
e 631 954
e 632 778
e 634 901
e 634 734
e 634 997
e 634 923
e 635 922
e 635 955
e 636 754
e 636 691
e 637 701
e 637 777
e 637 955
e 638 745
e 638 962
e 638 703
e 639 679
e 639 950
e 639 928
e 640 690
e 640 786
e 640 880
e 640 855
e 641 648
e 641 900
e 643 936
e 643 843
e 644 771
e 645 799
e 648 696
e 648 787
e 649 788
e 649 687
e 649 891
e 651 827
e 651 829
e 652 957
e 653 764
e 654 775
e 655 888
e 656 672
e 657 702
e 657 860
e 658 940
e 658 742
e 658 800
e 659 893
e 662 909
e 664 806
e 664 699
e 664 824
e 665 837
e 665 911
e 667 693
e 669 813
e 670 915
e 670 817
e 671 727
e 672 916
e 672 848
e 675 969
e 676 698
e 676 989
e 678 897
e 678 857
e 679 935
e 680 902
e 685 960
e 686 827
e 687 871
e 687 866
e 689 868
e 689 866
e 689 797
e 690 967
e 690 772
e 692 914
e 692 718
e 692 880
e 693 943
e 694 807
e 695 738
e 696 984
e 697 944
e 698 932
e 701 750
e 702 707
e 702 765
e 702 766
e 702 741
e 703 790
e 705 719
e 706 797
e 708 783
e 710 821
e 711 762
e 711 915
e 711 897
e 711 937
e 711 826
e 712 942
e 712 845
e 715 826
e 716 835
e 718 778
e 719 858
e 719 813
e 719 874
e 719 754
e 720 911
e 720 953
e 723 843
e 725 769
e 726 794
e 727 780
e 727 916
e 727 893
e 728 894
e 730 966
e 730 764
e 734 948
e 735 753
e 736 951
e 738 925
e 739 942
e 741 868
e 742 892
e 742 929
e 743 817
e 745 871
e 748 772
e 749 771
e 749 881
e 749 762
e 750 801
e 750 942
e 753 810
e 754 755
e 754 988
e 755 818
e 755 900
e 755 773
e 756 839
e 760 804
e 762 775
e 762 832
e 764 856
e 765 884
e 765 957
e 765 947
e 765 991
e 768 867
e 768 859
e 769 955
e 769 917
e 770 804
e 773 868
e 773 834
e 774 987
e 774 818
e 775 940
e 777 859
e 780 830
e 781 861
e 781 951
e 784 806
e 786 838
e 786 837
e 787 881
e 789 871
e 789 931
e 790 929
e 791 958
e 792 820
e 792 819
e 794 940
e 795 812
e 796 916
e 799 916
e 799 967
e 801 940
e 805 962
e 805 923
e 807 997
e 808 826
e 810 960
e 811 829
e 812 901
e 814 974
e 817 995
e 820 905
e 821 861
e 824 977
e 825 875
e 827 861
e 830 832
e 830 963
e 831 953
e 834 905
e 834 856
e 835 912
e 836 964
e 840 929
e 841 907
e 842 1000
e 842 893
e 842 899
e 842 959
e 843 894
e 844 947
e 844 958
e 844 857
e 845 871
e 846 851
e 848 905
e 855 918
e 855 985
e 855 919
e 857 980
e 858 954
e 859 860
e 861 891
e 861 912
e 867 925
e 868 887
e 870 937
e 871 917
e 872 978
e 875 894
e 876 906
e 876 907
e 877 939
e 879 990
e 880 966
e 887 891
e 890 983
e 891 970
e 892 999
e 893 933
e 893 923
e 894 972
e 897 929
e 898 933
e 899 955
e 902 984
e 902 964
e 905 933
e 907 1000
e 909 950
e 915 930
e 921 960
e 922 928
e 927 977
e 928 972
e 928 929
e 931 980
e 931 967
e 933 964
e 935 945
e 936 957
e 936 950
e 940 959
e 942 959
e 944 966
e 953 955
e 964 976
e 979 989
